SCIP Status        : solving was interrupted [time limit reached]
Total Time         :    3600.00
  solving          :    3600.00
  presolving       :       0.36 (included in solving)
  reading          :       0.00
  copying          :       1.64 (53 #copies) (minimal 0.00, maximal 0.11, average 0.03)
Original Problem   :
  Problem name     : bbbenchmark/g05_100.0.cut
  Variables        : 101 (100 binary, 0 integer, 0 implicit integer, 1 continuous)
  Constraints      : 1 initial, 1 maximal
  Objective        : minimize, 1 non-zeros (abs.min = 1, abs.max = 1)
Presolved Problem  :
  Problem name     : t_bbbenchmark/g05_100.0.cut
  Variables        : 1806 (100 binary, 0 integer, 1690 implicit integer, 16 continuous)
  Constraints      : 1736 initial, 8022 maximal
  Objective        : minimize, 1 non-zeros (abs.min = 1, abs.max = 1)
  Nonzeros         : 8521 constraint, 202 clique table
Presolvers         :   ExecTime  SetupTime  Calls  FixedVars   AggrVars   ChgTypes  ChgBounds   AddHoles    DelCons    AddCons   ChgSides   ChgCoefs
  boundshift       :       0.00       0.00      0          0          0          0          0          0          0          0          0          0
  convertinttobin  :       0.00       0.00      0          0          0          0          0          0          0          0          0          0
  domcol           :       0.00       0.00      1          0          0          0          0          0          0          0          0          0
  dualagg          :       0.00       0.00      0          0          0          0          0          0          0          0          0          0
  dualcomp         :       0.00       0.00      1          0          0          0          0          0          0          0          0          0
  dualinfer        :       0.00       0.00      0          0          0          0          0          0          0          0          0          0
  dualsparsify     :       0.00       0.00      1          0          0          0          0          0          0          0          0          0
  gateextraction   :       0.00       0.00      0          0          0          0          0          0          0          0          0          0
  implics          :       0.00       0.00      2          0          0          0          0          0          0          0          0          0
  inttobinary      :       0.00       0.00      0          0          0          0          0          0          0          0          0          0
  qpkktref         :       0.00       0.00      0          0          0          0          0          0          0          0          0          0
  redvub           :       0.00       0.00      0          0          0          0          0          0          0          0          0          0
  sparsify         :       0.00       0.00      1          0          0          0          0          0          0          0          0          0
  stuffing         :       0.00       0.00      0          0          0          0          0          0          0          0          0          0
  trivial          :       0.00       0.00      4          0          0          0          0          0          0          0          0          0
  tworowbnd        :       0.00       0.00      0          0          0          0          0          0          0          0          0          0
  dualfix          :       0.00       0.00      4          0          0          0          0          0          0          0          0          0
  genvbounds       :       0.00       0.00      0          0          0          0          0          0          0          0          0          0
  probing          :       0.29       0.00      1          0          0          0          0          0          0          0          0          0
  pseudoobj        :       0.00       0.00      1          0          0          0          1          0          0          0          0          0
  symmetry         :       0.00       0.00      0          0          0          0          0          0          0          0          0          0
  vbounds          :       0.00       0.00      1          0          0          0          0          0          0          0          0          0
  varbound         :       0.00       0.00      2          0          0          0          0          0          0          0          0          0
  and              :       0.01       0.00      2          0          0          0          0          0          0          0          0          0
  linear           :       0.00       0.00      2          0          0          0          0          0          0          0          0          0
  logicor          :       0.00       0.00      0          0          0          0          0          0          0          0          0          0
  bounddisjunction :       0.00       0.00      0          0          0          0          0          0          0          0          0          0
  nonlinear        :       0.05       0.01      5          0          0          0          1          0          0       1735          0          0
  benders          :       0.00       0.00      0          0          0          0          0          0          0          0          0          0
  components       :       0.01       0.00      1          0          0          0          0          0          0          0          0          0
  root node        :          -          -      -          0          -          -         12          -          -          -          -          -
Constraints        :     Number  MaxNumber  #Separate #Propagate    #EnfoLP    #EnfoRelax  #EnfoPS    #Check   #ResProp    Cutoffs    DomReds       Cuts    Applied      Conss   Children
  benderslp        :          0          0          0          0     133229          0          0       8346          0          0          0          0          0          0          0
  integral         :          0          0          0          0     133229          0          0       8346          0          0       1583          0          0       1234     264546
  varbound         :         15         15         87     776851          0          0          0        188          0          0      76518          0          0          0          0
  and              :       1690       1690     156936     829240          0          0          0        188     452986          6    1391712       3660       3611          0          0
  linear           :         31+        38         87     829269          0          0          0        186        782          2     547043          0          0          0          0
  logicor          :          0+      6015          0     116122          0          0          0          0        209        604        149          0          0          0          0
  bounddisjunction :          0+       322          0      58231          0          0          0          0          3          9          2          0          0          0          0
  benders          :          0          0          0          0          0          0          0        121          0          0          0          0          0          0          0
  countsols        :          0          0          0          0          0          0          0        121          0          0          0          0          0          0          0
  components       :          0          0          0          0          0          0          0          0          0          0          0          0          0          0          0
Constraint Timings :  TotalTime  SetupTime   Separate  Propagate     EnfoLP     EnfoPS     EnfoRelax   Check    ResProp    SB-Prop
  benderslp        :       0.21       0.00       0.00       0.00       0.19       0.00       0.00       0.02       0.00       0.00
  integral         :      68.76       0.00       0.00       0.00      68.75       0.00       0.00       0.01       0.00       0.00
  varbound         :       1.15       0.00       0.00       1.15       0.00       0.00       0.00       0.00       0.00       0.00
  and              :     133.96       0.00      93.77      39.18       0.00       0.00       0.00       0.08       0.38       0.55
  linear           :       5.72       0.00       0.06       5.62       0.00       0.00       0.00       0.00       0.00       0.04
  logicor          :       8.83       0.00       0.00       8.80       0.00       0.00       0.00       0.00       0.00       0.03
  bounddisjunction :       1.01       0.00       0.00       1.01       0.00       0.00       0.00       0.00       0.00       0.00
  benders          :       0.00       0.00       0.00       0.00       0.00       0.00       0.00       0.00       0.00       0.00
  countsols        :       0.00       0.00       0.00       0.00       0.00       0.00       0.00       0.00       0.00       0.00
  components       :       0.17       0.00       0.00       0.17       0.00       0.00       0.00       0.00       0.00       0.00
Propagators        : #Propagate   #ResProp    Cutoffs    DomReds
  dualfix          :          4          0          0          0
  genvbounds       :          0          0          0          0
  nlobbt           :          0          0          0          0
  obbt             :          0          0          0          0
  probing          :          0          0          0          0
  pseudoobj        :     578132         15          0       1034
  redcost          :     307927          0          0     132426
  rootredcost      :         10          0          0          0
  symmetry         :          0          0          0          0
  vbounds          :     133459          0          0          0
Propagator Timings :  TotalTime  SetupTime   Presolve  Propagate    ResProp    SB-Prop
  dualfix          :       0.00       0.00       0.00       0.00       0.00       0.00
  genvbounds       :       0.62       0.00       0.00       0.61       0.00       0.01
  nlobbt           :       0.00       0.00       0.00       0.00       0.00       0.00
  obbt             :       0.00       0.00       0.00       0.00       0.00       0.00
  probing          :       0.29       0.00       0.29       0.00       0.00       0.00
  pseudoobj        :       1.13       0.00       0.00       1.12       0.00       0.01
  redcost          :      21.03       0.00       0.00      21.02       0.00       0.01
  rootredcost      :       0.65       0.00       0.00       0.64       0.00       0.01
  symmetry         :       0.46       0.00       0.00       0.46       0.00       0.00
  vbounds          :       0.78       0.00       0.00       0.77       0.00       0.01
Conflict Analysis  :       Time      Calls    Success    DomReds  Conflicts   Literals    Reconvs ReconvLits   Dualrays   Nonzeros   LP Iters   (pool size: [10000,10000])
  propagation      :       0.03        619        493          -        547       64.1          0        0.0          -          -          -
  infeasible LP    :       0.12         85         85          -       2964      146.2          0        0.0         85      193.0          0
  bound exceed. LP :      23.26       6543       6131          -     133308      110.6          0        0.0          0        0.0      61013
  strong branching :       0.00          0          0          -          0        0.0          0        0.0          -          -          0
  pseudo solution  :       0.00          0          0          -          0        0.0          0        0.0          -          -          -
  applied globally :       0.65          -          -          0      30773      115.3          -          -         85          -          -
  applied locally  :          -          -          -          0          0        0.0          -          -          0          -          -
Separators         :   ExecTime  SetupTime      Calls  RootCalls    Cutoffs    DomReds  FoundCuts ViaPoolAdd  DirectAdd    Applied ViaPoolApp  DirectApp      Conss
  cut pool         :       4.98          -      29702        112          -          -      35182     966513          -          -          -          -          -    (maximal pool size:       3103)
  aggregation      :       9.18       0.00       4343         87          0          0         75         84          0         30         30          0          0
  > cmir           :          -          -          -          -          -          -          -         84          0         30         30          0          -
  > flowcover      :          -          -          -          -          -          -          -          0          0          0          0          0          -
  > knapsackcover  :          -          -          -          -          -          -          -          0          0          0          0          0          -
  cgmip            :       0.00       0.00          0          0          0          0          0          0          0          0          0          0          0
  clique           :       0.00       0.00         87         87          0          0          0          0          0          0          0          0          0
  closecuts        :       0.00       0.00          0          0          0          0          0          0          0          0          0          0          0
  convexproj       :       0.00       0.00          0          0          0          0          0          0          0          0          0          0          0
  disjunctive      :       0.00       0.00          0          0          0          0          0          0          0          0          0          0          0
  eccuts           :       0.00       0.00          0          0          0          0          0          0          0          0          0          0          0
  gauge            :       0.00       0.00          0          0          0          0          0          0          0          0          0          0          0
  gomory           :       0.00       0.00          0          0          0          0          0          0          0          0          0          0          0
  > gomorymi       :          -          -          -          -          -          -          -          0          0          0          0          0          -
  > strongcg       :          -          -          -          -          -          -          -          0          0          0          0          0          -
  impliedbounds    :       0.30       0.00       4343         87          0          0          0          0          0          0          0          0          0
  interlattice     :       0.43       0.00         60         60          0          0         60          0         60         60          0         60          0
  interminor       :       0.00       0.00          0          0          0          0          0          0          0          0          0          0          0
  intersub         :       0.00       0.00          0          0          0          0          0          0          0          0          0          0          0
  intobj           :       0.00       0.00          0          0          0          0          0          0          0          0          0          0          0
  mcf              :       0.01       0.00          1          1          0          0          0          0          0          0          0          0          0
  minor            :       0.01       0.00          0          0          0          0          0          0          0          0          0          0          0
  mixing           :       0.00       0.00       4343         87          0          0          0          0          0          0          0          0          0
  oddcycle         :       0.00       0.00          0          0          0          0          0          0          0          0          0          0          0
  rapidlearning    :       0.02       0.00          0          0          0          0          0          0          0          0          0          0          0
  rlt              :       0.00       0.00         10         10          0          0          0          0          0          0          0          0          0
  zerohalf         :      35.84       0.00       4065         20          0          0      35107     966429          0     140179     140179          0          0
Cutselectors       :   ExecTime  SetupTime      Calls  RootCalls   Selected     Forced   Filtered  RootSelec   RootForc   RootFilt 
  hybrid           :       1.01       0.00      16404         85     143880          0     826353        243          0          9
Pricers            :   ExecTime  SetupTime      Calls       Vars
  problem variables:       0.00          -          0          0
Branching Rules    :   ExecTime  SetupTime   BranchLP  BranchExt   BranchPS    Cutoffs    DomReds       Cuts      Conss   Children
  allfullstrong    :       0.00       0.00          0          0          0          0          0          0          0          0
  cloud            :       0.00       0.00          0          0          0          0          0          0          0          0
  distribution     :       0.00       0.00          0          0          0          0          0          0          0          0
  fullstrong       :       0.00       0.00          0          0          0          0          0          0          0          0
  inference        :       0.00       0.00          0          0          0          0          0          0          0          0
  leastinf         :       0.00       0.00          0          0          0          0          0          0          0          0
  lookahead        :       0.00       0.00          0          0          0          0          0          0          0          0
  mostinf          :       0.00       0.00          0          0          0          0          0          0          0          0
  multaggr         :       0.00       0.00          0          0          0          0          0          0          0          0
  nodereopt        :       0.00       0.00          0          0          0          0          0          0          0          0
  pscost           :       0.00       0.00          0          0          0          0          0          0          0          0
  random           :       0.00       0.00          0          0          0          0          0          0          0          0
  relpscost        :      68.26       0.00     133229          0          0          0       1583          0       1234     264546
  vanillafullstrong:       0.00       0.00          0          0          0          0          0          0          0          0
Primal Heuristics  :   ExecTime  SetupTime      Calls      Found       Best
  LP solutions     :       0.00          -          -          0          0
  relax solutions  :       0.00          -          -          0          0
  pseudo solutions :       0.00          -          -          0          0
  strong branching :       0.00          -          -          0          0
  actconsdiving    :       0.00       0.00          0          0          0
  adaptivediving   :       3.64       0.00         29          0          0
  alns             :       6.13       0.00         24          8          7
  bound            :       0.00       0.00          0          0          0
  clique           :       0.01       0.00          1          0          0
  coefdiving       :       0.00       0.00          0          0          0
  completesol      :       0.00       0.00          0          0          0
  conflictdiving   :     145.22       0.00       1152          0          0
  crossover        :       0.56       0.00          3          0          0
  dins             :       0.00       0.00          0          0          0
  distributiondivin:      70.16       0.00        324          0          0
  dps              :       0.00       0.00          0          0          0
  dualval          :       0.00       0.00          0          0          0
  farkasdiving     :       0.00       0.00          0          0          0
  feaspump         :       0.17       0.00          1          1          1
  fixandinfer      :       0.00       0.00          0          0          0
  fracdiving       :      50.68       0.00        456          0          0
  gins             :       0.21       0.00          0          0          0
  guideddiving     :      51.21       0.00        432          1          1
  indicator        :       0.14       0.00          0          0          0
  indicatordiving  :       0.00       0.00          0          0          0
  intdiving        :       0.00       0.00          0          0          0
  intshifting      :       0.63       0.00         85          0          0
  linesearchdiving :      46.45       0.00        385          0          0
  localbranching   :       0.00       0.00          0          0          0
  locks            :       0.01       0.00          1          0          0
  lpface           :       0.29       0.00          0          0          0
  mpec             :     428.21       0.00         11          2          2
  multistart       :       0.00       0.00          0          0          0
  mutation         :       0.00       0.00          0          0          0
  nlpdiving        :      57.51       0.00          3          0          0
  objpscostdiving  :     131.43       0.00        160         98          1
  octane           :       0.00       0.00          0          0          0
  ofins            :       0.18       0.00          0          0          0
  oneopt           :       0.19       0.00         15          0          0
  padm             :       0.00       0.00          0          0          0
  proximity        :       0.00       0.00          0          0          0
  pscostdiving     :      48.92       0.00        356          1          1
  randrounding     :       0.89       0.00       8221          0          0
  rens             :       0.00       0.00          0          0          0
  reoptsols        :       0.00       0.00          0          0          0
  repair           :       0.00       0.00          0          0          0
  rins             :       4.60       0.00         25          0          0
  rootsoldiving    :      34.53       0.00         36          1          0
  rounding         :       1.79       0.00       5362          0          0
  shiftandpropagate:       0.00       0.00          0          0          0
  shifting         :      51.82       0.00      11183          3          3
  simplerounding   :       0.15       0.00          0          0          0
  subnlp           :     238.70       0.00          0          0          0
  trivial          :       0.00       0.00          2          2          2
  trivialnegation  :       0.00       0.00          0          0          0
  trustregion      :       0.00       0.00          0          0          0
  trysol           :       0.25       0.00          0          0          0
  twoopt           :       0.00       0.00          0          0          0
  undercover       :       1.59       0.00          1          1          1
  vbounds          :       0.00       0.00          0          0          0
  veclendiving     :      46.96       0.00        396          0          0
  zeroobj          :       0.00       0.00          0          0          0
  zirounding       :       0.44       0.00       1000          0          0
  other solutions  :          -          -          -          0          -
Diving (single)    :      Calls      Nodes   LP Iters Backtracks  Conflicts   MinDepth   MaxDepth   AvgDepth  RoundSols  NLeafSols  MinSolDpt  MaxSolDpt  AvgSolDpt
  actconsdiving    :          0          -          -          -          -          -          -          -          -          -          -          -          -
  coefdiving       :          0          -          -          -          -          -          -          -          -          -          -          -          -
  conflictdiving   :       1152      52339    1444720       1013      63302         56         90       67.7          0          -          -          -          -
  distributiondivin:        324      12580     493585        359       5779         52         80       60.6          0          -          -          -          -
  farkasdiving     :          0          -          -          -          -          -          -          -          -          -          -          -          -
  fracdiving       :        456      42503     488635        119       1978         57        259      115.4          0          -          -          -          -
  guideddiving     :        432      40318     500565        171       5722         58        217      115.4          0          1        137        137      137.0
  indicatordiving  :          0          -          -          -          -          -          -          -          -          -          -          -          -
  linesearchdiving :        385      17496     491114        336      19849         53         91       67.0          0          -          -          -          -
  pscostdiving     :        356      16971     504595        367       9779         55         78       69.1          0          1         78         78       78.0
  veclendiving     :        396      17311     489843        339      25542         56         82       65.5          0          -          -          -          -
Diving (adaptive)  :      Calls      Nodes   LP Iters Backtracks  Conflicts   MinDepth   MaxDepth   AvgDepth  RoundSols  NLeafSols  MinSolDpt  MaxSolDpt  AvgSolDpt
  actconsdiving    :          4        171       5452          2         30         56         62       59.8          0          -          -          -          -
  coefdiving       :          9        346       8091          6        409         56         89       67.4          0          -          -          -          -
  conflictdiving   :          0          -          -          -          -          -          -          -          -          -          -          -          -
  distributiondivin:          0          -          -          -          -          -          -          -          -          -          -          -          -
  farkasdiving     :          0          -          -          -          -          -          -          -          -          -          -          -          -
  fracdiving       :          0          -          -          -          -          -          -          -          -          -          -          -          -
  guideddiving     :          2        208       2208          0         21         95        146      120.5          0          -          -          -          -
  indicatordiving  :          0          -          -          -          -          -          -          -          -          -          -          -          -
  linesearchdiving :          5        239       6979          5        262         57         75       68.2          0          -          -          -          -
  pscostdiving     :          2         95       3204          2         72         64         71       67.5          0          -          -          -          -
  veclendiving     :          7        339       8885          4        445         59         76       65.1          0          -          -          -          -
Neighborhoods      :      Calls  SetupTime  SolveTime SolveNodes       Sols       Best       Exp3  EpsGreedy        UCB TgtFixRate  Opt  Inf Node Stal  Sol  Usr Othr Actv
  rens             :          4       0.34       0.58         89          0          0    0.00000   -1.00000    0.46495      0.522    0    3    0    1    0    0    0    1
  rins             :          2       0.10       0.09         90          0          0    0.00000   -1.00000    0.46928      0.850    0    1    0    1    0    0    0    1
  mutation         :          5       0.29       0.25        173          2          2    0.00000   -1.00000    0.53557      0.759    1    2    0    2    0    0    0    1
  localbranching   :          2       0.17       0.10        107          0          0    0.00000   -1.00000    0.46325      0.850    0    1    0    1    0    0    0    1
  crossover        :          4       0.13       0.34        147          3          3    0.00000   -1.00000    0.51541      0.747    0    1    0    2    1    0    0    1
  proximity        :          2       0.04       3.12       3909          2          1    0.00000   -1.00000    0.50105      0.850    1    0    0    1    0    0    0    1
  zeroobjective    :          2       0.05       0.04         85          0          0    0.00000   -1.00000    0.46511      0.850    0    1    0    1    0    0    0    1
  dins             :          3       0.11       0.20        266          1          1    0.00000   -1.00000    0.53124      0.900    1    0    0    2    0    0    0    1
  trustregion      :          0       0.00       0.00          0          0          0    0.00000   -1.00000    1.00000      0.900    0    0    0    0    0    0    0    0
Expressions        :   #IntEval  IntEvalTi   #RevProp  RevPropTi    DomReds    Cutoffs  #Estimate  EstimTime  Branching  #Simplify SimplifyTi Simplified
  pow              :          0       0.00          0       0.00          0          0          0       0.00          0          0       0.00          0
  prod             :       9900       0.01          0       0.00          0          0          0       0.00          0       6640       0.00          0
  sum              :          8       0.00          2       0.00          0          0          0       0.00          0          3       0.01          2
  var              :       6227       0.00          0       0.00          0          0          0       0.00          0      15288       0.00          0
  varidx           :          0       0.00          0       0.00          0          0          0       0.00          0          0       0.00          0
LP                 :       Time      Calls Iterations  Iter/call   Iter/sec  Time-0-It Calls-0-It    ItLimit
  primal LP        :     112.13      18823          0       0.00       0.00     112.01      18823
  dual LP          :    1530.31     246570    9536957      43.05    6232.04      10.90      25034
  lex dual LP      :       0.00          0          0       0.00          -
  barrier LP       :       0.00          0          0       0.00          -       0.00          0
  resolve instable :       0.00          0          0       0.00          -
  diving/probing LP:     531.14      24663    5367863     217.65   10106.31
  strong branching :      19.29       2610     176524      67.63    9151.06          -          -        804
    (at root node) :          -         19       4253     223.84          -
  conflict analysis:       9.47       6388      61013       9.55    6442.77
NLP relaxation     :
  solve time       :      57.37 (10 calls)
  convexity        :  nonconvex (46 linear rows, 0 convex ineq., 0 nonconvex ineq., 1690 nonlinear eq. or two-sided ineq.)
NLP Solvers        :  #Problems  ProblemTi    #Solves  SolveTime      #Iter  Time/Iter      #Okay #TimeLimit #IterLimit #LObjLimit #Interrupt  #NumError #EvalError  #OutOfMem #LicenseEr #OtherTerm   #GlobOpt    #LocOpt  #Feasible #LocInfeas #GlobInfea #Unbounded   #Unknown
  ipopt            :         12       8.92         42     490.99       1739       0.28         40          0          2          0          0          0          0          0          0          0          0         24          0         14          0          0          4
B&B Tree           :
  number of runs   :          1
  nodes            :     204207 (132273 internal, 71934 leaves)
  feasible leaves  :          0
  infeas. leaves   :         31
  objective leaves :      71902
  nodes (total)    :     204207 (132273 internal, 71934 leaves)
  nodes left       :      60307
  max depth        :         71
  max depth (total):         71
  backtracks       :      42332 (20.7%)
  early backtracks :          0 (0.0%)
  nodes exc. ref.  :          0 (0.0%)
  delayed cutoffs  :          0
  repropagations   :        316 (1186 domain reductions, 0 cutoffs)
  avg switch length:       6.05
  switching time   :     166.03
Estim. Tree Size   :     408480
Estimation Tree    : 264547 nodes (204240 visited, 132273 internal, 71967 leaves, 60307 open), weight: 0.0000 completed 0.0750
Estimations        :      estim      value      trend resolution     smooth
  wbe              : 4813388862534480          -          -          -          -
  tree-profile     :         -1          -          -          -          -
  gap              :    5249481    0.66022    0.00002        128    5040505
  tree-weight      :     408480    0.00000    0.00000        128     404712
  leaf-frequency   :     408480    0.35236   -0.00005        128     404712
  ssg              :    6861667    0.88157   -0.00003        128    6588172
  open-nodes       :     408480 60307.00000  245.88266        128     404712
Root Node          :
  First LP value   : -1.00000000000000e+00
  First LP Iters   :       1630 (12538.46 Iter/sec)
  First LP Time    :       0.13
  Final Dual Bound : -9.52121212121212e-01
  Final Root Iters :       2949
  Root LP Estimate : -3.96881208186721e-01
Solution           :
  Solutions found  :        118 (19 improvements)
  First Solution   : +1.00000000000000e+05   (in run 1, after 0 nodes, 0.02 seconds, depth 0, found by <trivial>)
  Gap First Sol.   :   infinite
  Gap Last Sol.    :      55.27 %
  Primal Bound     : -5.55151515151512e-01   (in run 1, after 46077 nodes, 985.04 seconds, depth 20, found by <alns>)
  Dual Bound       : -8.40852823791295e-01
  Gap              :      51.46 %
Integrals          :      Total       Avg%
  primal-dual      :  129593.82      36.00
  primal-ref       :          -          - (not evaluated)
  dual-ref         :          -          - (not evaluated)
